Maximize

5 x_0 + 5 x_1 + 5 x_2 + 5 x_3 + 5 x_4 + 2 x_5 + 1 x_6 + 1 x_7 + 1 x_8 + 1 x_9


Subject To

a0: 1 x_0 + 0 x_1 + 1 x_2 + 0 x_3 + 0 x_4 + 1 x_5 + 1 x_6 + 0 x_7 + 0 x_8 + 0 x_9 >= 1
a1: 1 x_0 + 0 x_1 + 0 x_2 + 1 x_3 + 0 x_4 + 0 x_5 + 0 x_6 + 1 x_7 + 1 x_8 + 0 x_9 >= 1
a2: 0 x_0 + 1 x_1 + 0 x_2 + 1 x_3 + 0 x_4 + 0 x_5 + 1 x_6 + 0 x_7 + 0 x_8 + 1 x_9 >= 1
a3: 0 x_0 + 1 x_1 + 0 x_2 + 0 x_3 + 1 x_4 + 1 x_5 + 0 x_6 + 1 x_7 + 0 x_8 + 0 x_9 >= 1
a4: 0 x_0 + 0 x_1 + 1 x_2 + 0 x_3 + 1 x_4 + 0 x_5 + 0 x_6 + 0 x_7 + 1 x_8 + 1 x_9 >= 1
b0: 1234.5 x_0 + 1098.7 x_1 + 1654.3 x_2 + 1210.9 x_3 + 1876.5 x_4 + 1432.1 x_5 + 1234.5 x_6 + 1099.9 x_7 + 1199.9 x_8 + 1000.0 x_9 <= 5000
c0: x_0 + x_8 <= 1
c1: x_0 + x_9 <= 1
c2: x_1 + x_7 <= 1
c3: x_1 + x_8 <= 1
c4: x_2 + x_6 <= 1
c5: x_2 + x_7 <= 1
c6: x_3 + x_5 <= 1
c7: x_3 + x_6 <= 1
c8: x_4 + x_9 <= 1
c9: x_5 + x_3 <= 1
c10: x_6 + x_2 <= 1
c11: x_6 + x_3 <= 1
c12: x_7 + x_1 <= 1
c13: x_7 + x_2 <= 1
c14: x_8 + x_0 <= 1
c15: x_8 + x_1 <= 1
c16: x_9 + x_0 <= 1
c17: x_9 + x_4 <= 1




Binary

x_0 x_1 x_2 x_3 x_4 x_5 x_6 x_7 x_8 x_9

 


End
